Traveling Salesman Problem/TSP_generados/Aleatorio1620395306_17.tsp
NAME: Aleatorio1620395306_17.tsp
COMMENT: Randomly generated scenario
TYPE: TSP
DIMENSION: 17
EDGE_WEIGHT_TYPE: ATT
NODE_COORD_SECTION
1 36.12 48.87
2 36.16 33.07
3 33.11 25.89
4 2.09 14.07
5 13.78 21.77
6 41.63 0.53
7 5.83 3.85
8 28.22 5.95
9 32.35 49.5
10 17.82 19.34
11 43.53 28.45
12 19.53 39.19
13 42.35 18.56
14 44.22 31.31
15 13.8 8.65
16 15.07 40.68
17 38.35 31.33
