Traveling Salesman Problem/TSP_generados/Aleatorio1620395306_17.opt.tour
NAME: Aleatorio1620395306_17.opt.tour
COMMENT: Optimal solution for Aleatorio1620395306_17 (182.49699638941112)
TYPE: TOUR
DIMENSION: 17
TOUR_SECTION
1 2 3 17 14 11 13 6 8 15 7 4 5 10 16 12 9
-1
EOF
